40
0 1 0.5 0.38
0 2 0.2 0.17
0 3 0.61 0.29
0 4 0.6 0.35
0 5 0.76 0.25
0 6 0.52 0.28
0 7 0.4 0.24
0 8 0.8 0.27
0 9 0.8 0.32
0 10 0.59 0.33
0 11 0.75 0.32
0 12 0.7 0.37
0 13 0.7 0.39
0 14 0.72 0.34
0 15 0.7 0.29
0 16 0.39 0.2
0 17 0.28 0.24
0 18 0.6 0.27
0 19 0.51 0.14
0 20 0.56 0.3
0 21 0.46 0.28
0 22 0.37 0.32
0 23 0.54 0.34
0 24 0.63 0.26
0 25 0.5 0.32
0 26 0.42 0.36
0 27 0.38 0.31
0 28 0.49 0.33
0 29 0.42 0.24
0 30 0.63 0.29
0 31 0.59 0.3
0 32 0.52 0.3
0 33 0.42 0.16
0 34 0.66 0.4
0 35 0.68 0.24
0 36 0.62 0.37
0 37 0.34 0.17
0 38 0.63 0.42
0 39 0.65 0.29
1 2 0.5 0.28
1 3 0.58 0.33
1 4 0.68 0.34
1 5 0.57 0.27
1 6 0.43 0.26
1 7 0.6 0.28
1 8 0.8 0.29
1 9 0.54 0.36
1 10 0.54 0.2
1 11 0.42 0.27
1 12 0.56 0.32
1 13 0.8 0.37
1 14 0.68 0.24
1 15 0.2 0.16
1 16 0.48 0.32
1 17 0.48 0.3
1 18 0.57 0.3
1 19 0.68 0.25
1 20 0.54 0.24
1 21 0.5 0.29
1 22 0.54 0.36
1 23 0.66 0.22
1 24 0.66 0.22
1 25 0.55 0.25
1 26 0.75 0.32
1 27 0.77 0.08
1 28 0.53 0.26
1 29 0.54 0.3
1 30 0.62 0.28
1 31 0.51 0.16
1 32 0.43 0.28
1 33 0.46 0.29
1 34 0.46 0.42
1 35 0.76 0.36
1 36 0.81 0.24
1 37 0.6 0.22
1 38 0.3 0.18
1 39 0.67 0.16
2 3 0.45 0.29
2 4 0.54 0.26
2 5 0.69 0.23
2 6 0.72 0.43
2 7 0.6 0.28
2 8 0.6 0.13
2 9 0.6 0.23
2 10 0.53 0.16
2 11 0.56 0.27
2 12 0.56 0.2
2 13 0.75 0.33
2 14 0.64 0.23
2 15 0.52 0.12
2 16 0.59 0.2
2 17 0.48 0.21
2 18 0.71 0.26
2 19 0.71 0.26
2 20 0.76 0.25
2 21 0.45 0.35
2 22 0.57 0.26
2 23 0.64 0.2
2 24 0.57 0.18
2 25 0.69 0.36
2 26 0.62 0.29
2 27 0.58 0.34
2 28 0.52 0.19
2 29 0.54 0.21
2 30 0.43 0.27
2 31 0.4 0.13
2 32 0.43 0.15
2 33 0.51 0.28
2 34 0.71 0.38
2 35 0.64 0.25
2 36 0.42 0.2
2 37 0.48 0.23
2 38 0.43 0.26
2 39 0.56 0.12
3 4 0.66 0.41
3 5 0.53 0.24
3 6 0.62 0.37
3 7 0.45 0.21
3 8 0.46 0.31
3 9 0.5 0.25
3 10 0.57 0.21
3 11 0.59 0.25
3 12 0.6 0.33
3 13 0.75 0.4
3 14 0.76 0.3
3 15 0.49 0.17
3 16 0.62 0.22
3 17 0.33 0.28
3 18 0.74 0.19
3 19 0.72 0.24
3 20 0.61 0.31
3 21 0.68 0.28
3 22 0.8 0.33
3 23 0.58 0.24
3 24 0.69 0.11
3 25 0.68 0.29
3 26 0.59 0.22
3 27 0.7 0.35
3 28 0.67 0.26
3 29 0.7 0.21
3 30 0.46 0.2
3 31 0.8 0.19
3 32 0.57 0.22
3 33 0.64 0.21
3 34 0.73 0.41
3 35 0.28 0.27
3 36 0.36 0.2
3 37 0.62 0.21
3 38 0.84 0.37
3 39 0.61 0.17
4 5 0.78 0.37
4 6 0.42 0.2
4 7 0.62 0.33
4 8 0.38 0.13
4 9 0.8 0.38
4 10 0.86 0.32
4 11 0.41 0.32
4 12 0.55 0.34
4 13 0.68 0.31
4 14 0.22 0.22
4 15 0.79 0.28
4 16 0.66 0.35
4 17 0.5 0.36
4 18 0.56 0.33
4 19 0.8 0.21
4 20 0.66 0.42
4 21 0.74 0.29
4 22 0.52 0.38
4 23 0.72 0.17
4 24 0.68 0.33
4 25 0.58 0.33
4 26 0.66 0.33
4 27 0.48 0.31
4 28 0.55 0.35
4 29 0.6 0.27
4 30 0.7 0.33
4 31 0.42 0.31
4 32 0.45 0.33
4 33 0.84 0.29
4 34 0.74 0.41
4 35 0.56 0.25
4 36 0.55 0.21
4 37 0.66 0.23
4 38 0.84 0.34
4 39 0.64 0.28
5 6 0.84 0.21
5 7 0.54 0.27
5 8 0.64 0.24
5 9 0.42 0.28
5 10 0.46 0.15
5 11 0.59 0.31
5 12 0.66 0.22
5 13 0.36 0.22
5 14 0.62 0.32
5 15 0.49 0.11
5 16 0.66 0.16
5 17 0.66 0.28
5 18 0.44 0.25
5 19 0.74 0.2
5 20 0.76 0.22
5 21 0.62 0.12
5 22 0.67 0.2
5 23 0.56 0.23
5 24 0.26 0.17
5 25 0.38 0.16
5 26 0.76 0.31
5 27 0.5 0.26
5 28 0.54 0.27
5 29 0.44 0.24
5 30 0.6 0.04
5 31 0.52 0.32
5 32 0.44 0.23
5 33 0.54 0.2
5 34 0.46 0.28
5 35 0.52 0.12
5 36 0.32 0.19
5 37 0.55 0.23
5 38 0.75 0.32
5 39 0.65 0.11
6 7 0.62 0.33
6 8 0.56 0.32
6 9 0.56 0.27
6 10 0.56 0.36
6 11 0.54 0.29
6 12 0.6 0.25
6 13 0.56 0.11
6 14 0.44 0.2
6 15 0.63 0.32
6 16 0.74 0.29
6 17 0.5 0.29
6 18 0.69 0.23
6 19 0.62 0.33
6 20 0.48 0.35
6 21 0.66 0.09
6 22 0.54 0.31
6 23 0.85 0.25
6 24 0.58 0.31
6 25 0.8 0.13
6 26 0.48 0.42
6 27 0.55 0.18
6 28 0.54 0.25
6 29 0.78 0.25
6 30 0.4 0.17
6 31 0.41 0.34
6 32 0.44 0.29
6 33 0.8 0.31
6 34 0.6 0.28
6 35 0.68 0.25
6 36 0.68 0.29
6 37 0.58 0.32
6 38 0.63 0.29
6 39 0.74 0.32
7 8 0.6 0.25
7 9 0.72 0.24
7 10 0.37 0.2
7 11 0.51 0.18
7 12 0.54 0.32
7 13 0.3 0.22
7 14 0.56 0.31
7 15 0.48 0.16
7 16 0.57 0.28
7 17 0.12 0.08
7 18 0.61 0.12
7 19 0.45 0.12
7 20 0.4 0.14
7 21 0.58 0.26
7 22 0.62 0.38
7 23 0.41 0.2
7 24 0.68 0.1
7 25 0.49 0.22
7 26 0.46 0.32
7 27 0.43 0.2
7 28 0.46 0.18
7 29 0.53 0.2
7 30 0.4 0.25
7 31 0.63 0.26
7 32 0.36 0.14
7 33 0.68 0.2
7 34 0.38 0.36
7 35 0.6 0.28
7 36 0.5 0.16
7 37 0.46 0.15
7 38 0.52 0.26
7 39 0.49 0.16
8 9 0.55 0.28
8 10 0.62 0.19
8 11 0.44 0.19
8 12 0.38 0.24
8 13 0.3 0.27
8 14 0.6 0.12
8 15 0.74 0.15
8 16 0.5 0.22
8 17 0.55 0.28
8 18 0.29 0.2
8 19 0.67 0.13
8 20 0.7 0.33
8 21 0.49 0.23
8 22 0.52 0.3
8 23 0.46 0.07
8 24 0.73 0.2
8 25 0.41 0.27
8 26 0.6 0.2
8 27 0.58 0.21
8 28 0.6 0.25
8 29 0.58 0.17
8 30 0.46 0.2
8 31 0.64 0.26
8 32 0.5 0.23
8 33 0.5 0.16
8 34 0.64 0.28
8 35 0.18 0.12
8 36 0.54 0.11
8 37 0.52 0.1
8 38 0.5 0.39
8 39 0.51 0.15
9 10 0.69 0.24
9 11 0.42 0.22
9 12 0.44 0.32
9 13 0.59 0.2
9 14 0.58 0.3
9 15 0.64 0.2
9 16 0.5 0.12
9 17 0.6 0.26
9 18 0.27 0.16
9 19 0.65 0.24
9 20 0.44 0.32
9 21 0.63 0.18
9 22 0.6 0.26
9 23 0.46 0.21
9 24 0.19 0.14
9 25 0.39 0.14
9 26 0.49 0.37
9 27 0.78 0.31
9 28 0.46 0.24
9 29 0.53 0.14
9 30 0.42 0.24
9 31 0.6 0.34
9 32 0.36 0.2
9 33 0.47 0.24
9 34 0.36 0.16
9 35 0.37 0.32
9 36 0.4 0.25
9 37 0.48 0.24
9 38 0.61 0.38
9 39 0.7 0.2
10 11 0.69 0.24
10 12 0.81 0.12
10 13 0.44 0.27
10 14 0.85 0.26
10 15 0.68 0.04
10 16 0.2 0.15
10 17 0.49 0.22
10 18 0.54 0.18
10 19 0.52 0.23
10 20 0.34 0.24
10 21 0.72 0.27
10 22 0.52 0.18
10 23 0.57 0.16
10 24 0.5 0.1
10 25 0.66 0.28
10 26 0.32 0.22
10 27 0.8 0.26
10 28 0.41 0.2
10 29 0.51 0.18
10 30 0.66 0.19
10 31 0.54 0.28
10 32 0.51 0.16
10 33 0.55 0.2
10 34 0.41 0.29
10 35 0.66 0.27
10 36 0.74 0.12
10 37 0.52 0.2
10 38 0.32 0.26
10 39 0.43 0.04
11 12 0.76 0.36
11 13 0.48 0.32
11 14 0.43 0.31
11 15 0.5 0.2
11 16 0.74 0.34
11 17 0.62 0.2
11 18 0.15 0.06
11 19 0.53 0.19
11 20 0.74 0.14
11 21 0.51 0.2
11 22 0.75 0.36
11 23 0.76 0.26
11 24 0.6 0.14
11 25 0.27 0.16
11 26 0.73 0.3
11 27 0.68 0.3
11 28 0.46 0.24
11 29 0.64 0.24
11 30 0.75 0.28
11 31 0.63 0.14
11 32 0.48 0.22
11 33 0.76 0.24
11 34 0.59 0.25
11 35 0.62 0.31
11 36 0.59 0.28
11 37 0.69 0.16
11 38 0.49 0.32
11 39 0.5 0.2
12 13 0.68 0.28
12 14 0.36 0.25
12 15 0.62 0.16
12 16 0.66 0.27
12 17 0.42 0.3
12 18 0.61 0.3
12 19 0.68 0.31
12 20 0.47 0.35
12 21 0.46 0.16
12 22 0.5 0.06
12 23 0.68 0.28
12 24 0.56 0.22
12 25 0.52 0.2
12 26 0.7 0.17
12 27 0.6 0.37
12 28 0.42 0.28
12 29 0.62 0.3
12 30 0.2 0.18
12 31 0.74 0.33
12 32 0.32 0.24
12 33 0.59 0.29
12 34 0.44 0.3
12 35 0.5 0.25
12 36 0.48 0.24
12 37 0.68 0.28
12 38 0.55 0.36
12 39 0.64 0.16
13 14 0.81 0.27
13 15 0.64 0.28
13 16 0.49 0.25
13 17 0.42 0.18
13 18 0.59 0.26
13 19 0.56 0.33
13 20 0.68 0.24
13 21 0.79 0.2
13 22 0.44 0.22
13 23 0.5 0.34
13 24 0.46 0.32
13 25 0.62 0.24
13 26 0.46 0.33
13 27 0.66 0.29
13 28 0.76 0.14
13 29 0.62 0.24
13 30 0.64 0.26
13 31 0.6 0.24
13 32 0.66 0.18
13 33 0.68 0.32
13 34 0.68 0.17
13 35 0.48 0.24
13 36 0.68 0.36
13 37 0.75 0.3
13 38 0.52 0.36
13 39 0.39 0.28
14 15 0.78 0.22
14 16 0.81 0.34
14 17 0.44 0.23
14 18 0.48 0.26
14 19 0.83 0.25
14 20 0.6 0.29
14 21 0.6 0.2
14 22 0.42 0.23
14 23 0.56 0.19
14 24 0.46 0.28
14 25 0.36 0.16
14 26 0.62 0.32
14 27 0.38 0.21
14 28 0.6 0.13
14 29 0.68 0.23
14 30 0.52 0.28
14 31 0.5 0.23
14 32 0.67 0.17
14 33 0.7 0.28
14 34 0.52 0.4
14 35 0.58 0.24
14 36 0.54 0.23
14 37 0.44 0.22
14 38 0.62 0.4
14 39 0.42 0.22
15 16 0.59 0.19
15 17 0.48 0.18
15 18 0.65 0.14
15 19 0.74 0.19
15 20 0.34 0.2
15 21 0.42 0.23
15 22 0.73 0.22
15 23 0.48 0.12
15 24 0.69 0.06
15 25 0.66 0.24
15 26 0.56 0.26
15 27 0.57 0.22
15 28 0.49 0.16
15 29 0.56 0.14
15 30 0.42 0.15
15 31 0.71 0.24
15 32 0.59 0.12
15 33 0.66 0.16
15 34 0.55 0.26
15 35 0.72 0.23
15 36 0.61 0.08
15 37 0.4 0.16
15 38 0.5 0.3
15 39 0.52 0.0
16 17 0.62 0.2
16 18 0.59 0.28
16 19 0.72 0.28
16 20 0.54 0.26
16 21 0.65 0.2
16 22 0.44 0.28
16 23 0.54 0.29
16 24 0.48 0.25
16 25 0.51 0.24
16 26 0.52 0.34
16 27 0.77 0.4
16 28 0.33 0.26
16 29 0.48 0.26
16 30 0.46 0.12
16 31 0.6 0.33
16 32 0.43 0.26
16 33 0.75 0.28
16 34 0.52 0.28
16 35 0.68 0.2
16 36 0.72 0.27
16 37 0.72 0.31
16 38 0.52 0.38
16 39 0.55 0.19
17 18 0.59 0.2
17 19 0.44 0.2
17 20 0.28 0.06
17 21 0.68 0.28
17 22 0.5 0.3
17 23 0.53 0.22
17 24 0.56 0.18
17 25 0.61 0.3
17 26 0.58 0.25
17 27 0.55 0.28
17 28 0.34 0.1
17 29 0.65 0.12
17 30 0.52 0.24
17 31 0.51 0.18
17 32 0.24 0.06
17 33 0.56 0.28
17 34 0.5 0.35
17 35 0.48 0.32
17 36 0.62 0.21
17 37 0.34 0.18
17 38 0.64 0.18
17 39 0.37 0.18
18 19 0.38 0.13
18 20 0.59 0.2
18 21 0.36 0.14
18 22 0.6 0.3
18 23 0.69 0.26
18 24 0.46 0.08
18 25 0.12 0.1
18 26 0.72 0.36
18 27 0.7 0.24
18 28 0.45 0.26
18 29 0.57 0.18
18 30 0.62 0.22
18 31 0.48 0.2
18 32 0.35 0.24
18 33 0.62 0.18
18 34 0.63 0.31
18 35 0.47 0.26
18 36 0.44 0.22
18 37 0.54 0.1
18 38 0.34 0.27
18 39 0.47 0.14
19 20 0.5 0.26
19 21 0.5 0.24
19 22 0.6 0.32
19 23 0.42 0.2
19 24 0.6 0.13
19 25 0.5 0.23
19 26 0.84 0.33
19 27 0.58 0.17
19 28 0.54 0.19
19 29 0.3 0.1
19 30 0.48 0.16
19 31 0.72 0.29
19 32 0.44 0.16
19 33 0.38 0.23
19 34 0.74 0.31
19 35 0.6 0.2
19 36 0.72 0.24
19 37 0.39 0.03
19 38 0.41 0.34
19 39 0.76 0.19
20 21 0.7 0.26
20 22 0.5 0.3
20 23 0.52 0.28
20 24 0.63 0.24
20 25 0.71 0.3
20 26 0.39 0.28
20 27 0.76 0.32
20 28 0.62 0.16
20 29 0.4 0.18
20 30 0.67 0.18
20 31 0.63 0.12
20 32 0.52 0.12
20 33 0.55 0.34
20 34 0.75 0.39
20 35 0.76 0.26
20 36 0.78 0.27
20 37 0.44 0.24
20 38 0.62 0.24
20 39 0.65 0.2
21 22 0.48 0.22
21 23 0.42 0.16
21 24 0.64 0.22
21 25 0.24 0.04
21 26 0.66 0.33
21 27 0.38 0.21
21 28 0.44 0.26
21 29 0.3 0.16
21 30 0.26 0.08
21 31 0.77 0.34
21 32 0.54 0.22
21 33 0.76 0.24
21 34 0.54 0.34
21 35 0.56 0.16
21 36 0.54 0.2
21 37 0.8 0.24
21 38 0.7 0.2
21 39 0.46 0.23
22 23 0.42 0.34
22 24 0.41 0.28
22 25 0.48 0.2
22 26 0.56 0.11
22 27 0.66 0.37
22 28 0.56 0.33
22 29 0.3 0.24
22 30 0.64 0.16
22 31 0.7 0.27
22 32 0.46 0.29
22 33 0.69 0.23
22 34 0.66 0.3
22 35 0.67 0.19
22 36 0.46 0.3
22 37 0.7 0.34
22 38 0.84 0.42
22 39 0.83 0.22
23 24 0.46 0.18
23 25 0.62 0.2
23 26 0.7 0.27
23 27 0.48 0.14
23 28 0.64 0.2
23 29 0.12 0.1
23 30 0.63 0.22
23 31 0.46 0.3
23 32 0.54 0.16
23 33 0.38 0.23
23 34 0.4 0.3
23 35 0.48 0.19
23 36 0.35 0.04
23 37 0.6 0.17
23 38 0.66 0.36
23 39 0.64 0.12
24 25 0.58 0.18
24 26 0.68 0.32
24 27 0.7 0.24
24 28 0.65 0.2
24 29 0.34 0.1
24 30 0.61 0.21
24 31 0.58 0.28
24 32 0.55 0.16
24 33 0.28 0.1
24 34 0.55 0.3
24 35 0.55 0.18
24 36 0.58 0.14
24 37 0.29 0.1
24 38 0.6 0.35
24 39 0.62 0.06
25 26 0.77 0.31
25 27 0.62 0.17
25 28 0.39 0.29
25 29 0.54 0.2
25 30 0.5 0.12
25 31 0.53 0.3
25 32 0.47 0.26
25 33 0.66 0.28
25 34 0.58 0.3
25 35 0.52 0.2
25 36 0.32 0.24
25 37 0.66 0.2
25 38 0.46 0.24
25 39 0.59 0.24
26 27 0.8 0.4
26 28 0.56 0.26
26 29 0.58 0.25
26 30 0.5 0.27
26 31 0.24 0.16
26 32 0.66 0.3
26 33 0.69 0.34
26 34 0.73 0.32
26 35 0.68 0.3
26 36 0.78 0.31
26 37 0.68 0.3
26 38 0.64 0.34
26 39 0.75 0.26
27 28 0.58 0.3
27 29 0.36 0.24
27 30 0.64 0.29
27 31 0.63 0.24
27 32 0.48 0.29
27 33 0.49 0.21
27 34 0.55 0.38
27 35 0.58 0.29
27 36 0.58 0.18
27 37 0.68 0.14
27 38 0.53 0.26
27 39 0.8 0.22
28 29 0.56 0.1
28 30 0.42 0.26
28 31 0.6 0.1
28 32 0.1 0.04
28 33 0.64 0.3
28 34 0.65 0.31
28 35 0.6 0.34
28 36 0.7 0.24
28 37 0.48 0.16
28 38 0.58 0.27
28 39 0.54 0.16
29 30 0.56 0.2
29 31 0.58 0.2
29 32 0.46 0.06
29 33 0.5 0.2
29 34 0.44 0.28
29 35 0.44 0.28
29 36 0.47 0.14
29 37 0.59 0.13
29 38 0.71 0.29
29 39 0.76 0.14
30 31 0.72 0.3
30 32 0.52 0.26
30 33 0.76 0.16
30 34 0.28 0.26
30 35 0.3 0.08
30 36 0.28 0.18
30 37 0.64 0.19
30 38 0.62 0.28
30 39 0.58 0.15
31 32 0.7 0.14
31 33 0.66 0.34
31 34 0.86 0.39
31 35 0.52 0.38
31 36 0.74 0.32
31 37 0.81 0.26
31 38 0.56 0.18
31 39 0.66 0.24
32 33 0.54 0.26
32 34 0.72 0.34
32 35 0.5 0.34
32 36 0.66 0.2
32 37 0.38 0.18
32 38 0.62 0.23
32 39 0.61 0.12
33 34 0.61 0.24
33 35 0.5 0.08
33 36 0.58 0.24
33 37 0.57 0.2
33 38 0.32 0.28
33 39 0.69 0.16
34 35 0.5 0.32
34 36 0.44 0.28
34 37 0.6 0.28
34 38 0.46 0.44
34 39 0.44 0.26
35 36 0.58 0.23
35 37 0.34 0.22
35 38 0.64 0.36
35 39 0.33 0.23
36 37 0.44 0.21
36 38 0.64 0.38
36 39 0.4 0.08
37 38 0.7 0.36
37 39 0.67 0.16
38 39 0.73 0.3
